50
100 100
1 80 394
2 78 756
3 78 726
4 77 286
5 76 883
6 75 953
7 74 492
8 74 924
9 72 109
10 72 815
11 69 52
12 69 358
13 69 327
14 68 895
15 67 954
16 65 114
17 65 998
18 65 612
19 64 31
20 63 815
21 62 275
22 61 581
23 57 143
24 57 963
25 56 208
26 54 999
27 53 994
28 52 261
29 50 785
30 47 476
31 47 726
32 45 277
33 44 165
34 40 213
35 38 971
36 36 528
37 35 285
38 33 985
39 32 643
40 32 898
41 29 852
42 29 567
43 29 605
44 27 784
45 26 829
46 24 219
47 21 675
48 21 678
49 20 647
50 20 663
